5 10 7 5 640
1.0 0.34 1.0 0.19 0.0 0.49 2.0 0.46 4.0 0.32 4.0 0.41 6.0 0.47 3.0 0.36 5.0 0.4 0.0 0.35
5.0 0.22 4.0 0.2 0.0 0.39 3.0 0.33 6.0 0.31 3.0 0.41 6.0 0.49 2.0 0.23 1.0 0.15 5.0 0.29
0.0 0.26 2.0 0.48 3.0 0.46 6.0 0.47 4.0 0.15 1.0 0.29 5.0 0.45 0.0 0.32 1.0 0.18 6.0 0.28
4.0 0.24 3.0 0.41 5.0 0.39 3.0 0.28 6.0 0.23 0.0 0.17 1.0 0.44 2.0 0.4 0.0 0.4 6.0 0.39
3.0 0.31 3.0 0.3 6.0 0.38 0.0 0.22 4.0 0.16 6.0 0.4 1.0 0.21 1.0 0.43 2.0 0.16 5.0 0.33
